\ENCODING=ISO-8859-1
\Problem name: UCP

Minimize
 obj: 30.1392 t_p(2,0) + 30.1392 t_p(2,1) + 30.1392 t_p(2,2) + 30.1392 t_p(2,3)
      + 30.1392 t_p(2,4) + 30.1392 t_p(2,5) + 30.1392 t_p(2,6)
      + 30.1392 t_p(2,7) + 30.1392 t_p(2,8) + 30.1392 t_p(2,9)
      + 35.2763 t_p(3,0) + 35.2763 t_p(3,1) + 35.2763 t_p(3,2)
      + 35.2763 t_p(3,3) + 35.2763 t_p(3,4) + 35.2763 t_p(3,5)
      + 35.2763 t_p(3,6) + 35.2763 t_p(3,7) + 35.2763 t_p(3,8)
      + 35.2763 t_p(3,9) + 8.43761 t_p(4,0) + 8.43761 t_p(4,1)
      + 8.43761 t_p(4,2) + 8.43761 t_p(4,3) + 8.43761 t_p(4,4)
      + 8.43761 t_p(4,5) + 8.43761 t_p(4,6) + 8.43761 t_p(4,7)
      + 8.43761 t_p(4,8) + 8.43761 t_p(4,9) + 12.2994 t_p(5,0)
      + 12.2994 t_p(5,1) + 12.2994 t_p(5,2) + 12.2994 t_p(5,3)
      + 12.2994 t_p(5,4) + 12.2994 t_p(5,5) + 12.2994 t_p(5,6)
      + 12.2994 t_p(5,7) + 12.2994 t_p(5,8) + 12.2994 t_p(5,9)
      + 10.4598 t_p(6,0) + 10.4598 t_p(6,1) + 10.4598 t_p(6,2)
      + 10.4598 t_p(6,3) + 10.4598 t_p(6,4) + 10.4598 t_p(6,5)
      + 10.4598 t_p(6,6) + 10.4598 t_p(6,7) + 10.4598 t_p(6,8)
      + 10.4598 t_p(6,9) + 40.4876 t_p(7,0) + 40.4876 t_p(7,1)
      + 40.4876 t_p(7,2) + 40.4876 t_p(7,3) + 40.4876 t_p(7,4)
      + 40.4876 t_p(7,5) + 40.4876 t_p(7,6) + 40.4876 t_p(7,7)
      + 40.4876 t_p(7,8) + 40.4876 t_p(7,9) + 14.814 t_p(8,0) + 14.814 t_p(8,1)
      + 14.814 t_p(8,2) + 14.814 t_p(8,3) + 14.814 t_p(8,4) + 14.814 t_p(8,5)
      + 14.814 t_p(8,6) + 14.814 t_p(8,7) + 14.814 t_p(8,8) + 14.814 t_p(8,9)
      + 15.0312 t_p(9,0) + 15.0312 t_p(9,1) + 15.0312 t_p(9,2)
      + 15.0312 t_p(9,3) + 15.0312 t_p(9,4) + 15.0312 t_p(9,5)
      + 15.0312 t_p(9,6) + 15.0312 t_p(9,7) + 15.0312 t_p(9,8)
      + 15.0312 t_p(9,9) + 20.4339 t_p(0,0) + 20.4339 t_p(0,1)
      + 20.4339 t_p(0,2) + 20.4339 t_p(0,3) + 20.4339 t_p(0,4)
      + 20.4339 t_p(0,5) + 20.4339 t_p(0,6) + 20.4339 t_p(0,7)
      + 20.4339 t_p(0,8) + 20.4339 t_p(0,9) + 18.4497 t_p(1,0)
      + 18.4497 t_p(1,1) + 18.4497 t_p(1,2) + 18.4497 t_p(1,3)
      + 18.4497 t_p(1,4) + 18.4497 t_p(1,5) + 18.4497 t_p(1,6)
      + 18.4497 t_p(1,7) + 18.4497 t_p(1,8) + 18.4497 t_p(1,9)
      + 4498.3855 t_V_4 + 8184.47 t_V_1 + 5449.5145 t_V_6 + 6117.426 t_V_5
      + 6802.744 t_V_9 + 8683.747 t_V_0 + 5603.478 t_V_8 + 7885.8604 t_V_2
      + 6222.7776 t_V_3 + 2970.9345 t_V_7 + 6241.93375 t_W_0 + 6241.93375 t_W_1
      + 6241.93375 t_W_2 + 6241.93375 t_W_3 + 6241.93375 t_W_4
      + 6241.93375 t_W_5 + 6241.93375 t_W_6 + 6241.93375 t_W_7
      + 6241.93375 t_W_8 + 6241.93375 t_W_9
Subject To
 _EqTimeSite(0,0)#0:  t_V_0 - t_W_0  = 0
 _EqTimeSite(0,1)#1:  t_V_0 - t_W_1  = 0
 _EqTimeSite(0,2)#2:  t_V_0 - t_W_2  = 0
 _EqTimeSite(0,3)#3:  t_V_0 - t_W_3  = 0
 _EqTimeSite(0,4)#4:  t_V_0 - t_W_4  = 0
 _EqTimeSite(0,5)#5:  t_V_0 - t_W_5  = 0
 _EqTimeSite(0,6)#6:  t_V_0 - t_W_6  = 0
 _EqTimeSite(0,7)#7:  t_V_0 - t_W_7  = 0
 _EqTimeSite(0,8)#8:  t_V_0 - t_W_8  = 0
 _EqTimeSite(0,9)#9:  t_V_0 - t_W_9  = 0
 _EqTimeSite(1,0)#10: t_V_1 - t_W_0  = 0
 _EqTimeSite(1,1)#11: t_V_1 - t_W_1  = 0
 _EqTimeSite(1,2)#12: t_V_1 - t_W_2  = 0
 _EqTimeSite(1,3)#13: t_V_1 - t_W_3  = 0
 _EqTimeSite(1,4)#14: t_V_1 - t_W_4  = 0
 _EqTimeSite(1,5)#15: t_V_1 - t_W_5  = 0
 _EqTimeSite(1,6)#16: t_V_1 - t_W_6  = 0
 _EqTimeSite(1,7)#17: t_V_1 - t_W_7  = 0
 _EqTimeSite(1,8)#18: t_V_1 - t_W_8  = 0
 _EqTimeSite(1,9)#19: t_V_1 - t_W_9  = 0
 _EqTimeSite(2,0)#20: t_V_2 - t_W_0  = 0
 _EqTimeSite(2,1)#21: t_V_2 - t_W_1  = 0
 _EqTimeSite(2,2)#22: t_V_2 - t_W_2  = 0
 _EqTimeSite(2,3)#23: t_V_2 - t_W_3  = 0
 _EqTimeSite(2,4)#24: t_V_2 - t_W_4  = 0
 _EqTimeSite(2,5)#25: t_V_2 - t_W_5  = 0
 _EqTimeSite(2,6)#26: t_V_2 - t_W_6  = 0
 _EqTimeSite(2,7)#27: t_V_2 - t_W_7  = 0
 _EqTimeSite(2,8)#28: t_V_2 - t_W_8  = 0
 _EqTimeSite(2,9)#29: t_V_2 - t_W_9  = 0
 _EqTimeSite(3,0)#30: t_V_3 - t_W_0  = 0
 _EqTimeSite(3,1)#31: t_V_3 - t_W_1  = 0
 _EqTimeSite(3,2)#32: t_V_3 - t_W_2  = 0
 _EqTimeSite(3,3)#33: t_V_3 - t_W_3  = 0
 _EqTimeSite(3,4)#34: t_V_3 - t_W_4  = 0
 _EqTimeSite(3,5)#35: t_V_3 - t_W_5  = 0
 _EqTimeSite(3,6)#36: t_V_3 - t_W_6  = 0
 _EqTimeSite(3,7)#37: t_V_3 - t_W_7  = 0
 _EqTimeSite(3,8)#38: t_V_3 - t_W_8  = 0
 _EqTimeSite(3,9)#39: t_V_3 - t_W_9  = 0
 _EqTimeSite(4,0)#40: t_V_4 - t_W_0  = 0
 _EqTimeSite(4,1)#41: t_V_4 - t_W_1  = 0
 _EqTimeSite(4,2)#42: t_V_4 - t_W_2  = 0
 _EqTimeSite(4,3)#43: t_V_4 - t_W_3  = 0
 _EqTimeSite(4,4)#44: t_V_4 - t_W_4  = 0
 _EqTimeSite(4,5)#45: t_V_4 - t_W_5  = 0
 _EqTimeSite(4,6)#46: t_V_4 - t_W_6  = 0
 _EqTimeSite(4,7)#47: t_V_4 - t_W_7  = 0
 _EqTimeSite(4,8)#48: t_V_4 - t_W_8  = 0
 _EqTimeSite(4,9)#49: t_V_4 - t_W_9  = 0
 _EqTimeSite(5,0)#50: t_V_5 - t_W_0  = 0
 _EqTimeSite(5,1)#51: t_V_5 - t_W_1  = 0
 _EqTimeSite(5,2)#52: t_V_5 - t_W_2  = 0
 _EqTimeSite(5,3)#53: t_V_5 - t_W_3  = 0
 _EqTimeSite(5,4)#54: t_V_5 - t_W_4  = 0
 _EqTimeSite(5,5)#55: t_V_5 - t_W_5  = 0
 _EqTimeSite(5,6)#56: t_V_5 - t_W_6  = 0
 _EqTimeSite(5,7)#57: t_V_5 - t_W_7  = 0
 _EqTimeSite(5,8)#58: t_V_5 - t_W_8  = 0
 _EqTimeSite(5,9)#59: t_V_5 - t_W_9  = 0
 _EqTimeSite(6,0)#60: t_V_6 - t_W_0  = 0
 _EqTimeSite(6,1)#61: t_V_6 - t_W_1  = 0
 _EqTimeSite(6,2)#62: t_V_6 - t_W_2  = 0
 _EqTimeSite(6,3)#63: t_V_6 - t_W_3  = 0
 _EqTimeSite(6,4)#64: t_V_6 - t_W_4  = 0
 _EqTimeSite(6,5)#65: t_V_6 - t_W_5  = 0
 _EqTimeSite(6,6)#66: t_V_6 - t_W_6  = 0
 _EqTimeSite(6,7)#67: t_V_6 - t_W_7  = 0
 _EqTimeSite(6,8)#68: t_V_6 - t_W_8  = 0
 _EqTimeSite(6,9)#69: t_V_6 - t_W_9  = 0
 _EqTimeSite(7,0)#70: t_V_7 - t_W_0  = 0
 _EqTimeSite(7,1)#71: t_V_7 - t_W_1  = 0
 _EqTimeSite(7,2)#72: t_V_7 - t_W_2  = 0
 _EqTimeSite(7,3)#73: t_V_7 - t_W_3  = 0
 _EqTimeSite(7,4)#74: t_V_7 - t_W_4  = 0
 _EqTimeSite(7,5)#75: t_V_7 - t_W_5  = 0
 _EqTimeSite(7,6)#76: t_V_7 - t_W_6  = 0
 _EqTimeSite(7,7)#77: t_V_7 - t_W_7  = 0
 _EqTimeSite(7,8)#78: t_V_7 - t_W_8  = 0
 _EqTimeSite(7,9)#79: t_V_7 - t_W_9  = 0
 _EqTimeSite(8,0)#80: t_V_8 - t_W_0  = 0
 _EqTimeSite(8,1)#81: t_V_8 - t_W_1  = 0
 _EqTimeSite(8,2)#82: t_V_8 - t_W_2  = 0
 _EqTimeSite(8,3)#83: t_V_8 - t_W_3  = 0
 _EqTimeSite(8,4)#84: t_V_8 - t_W_4  = 0
 _EqTimeSite(8,5)#85: t_V_8 - t_W_5  = 0
 _EqTimeSite(8,6)#86: t_V_8 - t_W_6  = 0
 _EqTimeSite(8,7)#87: t_V_8 - t_W_7  = 0
 _EqTimeSite(8,8)#88: t_V_8 - t_W_8  = 0
 _EqTimeSite(8,9)#89: t_V_8 - t_W_9  = 0
 _EqTimeSite(9,0)#90: t_V_9 - t_W_0  = 0
 _EqTimeSite(9,1)#91: t_V_9 - t_W_1  = 0
 _EqTimeSite(9,2)#92: t_V_9 - t_W_2  = 0
 _EqTimeSite(9,3)#93: t_V_9 - t_W_3  = 0
 _EqTimeSite(9,4)#94: t_V_9 - t_W_4  = 0
 _EqTimeSite(9,5)#95: t_V_9 - t_W_5  = 0
 _EqTimeSite(9,6)#96: t_V_9 - t_W_6  = 0
 _EqTimeSite(9,7)#97: t_V_9 - t_W_7  = 0
 _EqTimeSite(9,8)#98: t_V_9 - t_W_8  = 0
 _EqTimeSite(9,9)#99: t_V_9 - t_W_9  = 0
 ConvSite(0)#100:     t_V_0  = 1
 ConvSite(1)#101:     t_V_1  = 1
 ConvSite(2)#102:     t_V_2  = 1
 ConvSite(3)#103:     t_V_3  = 1
 ConvSite(4)#104:     t_V_4  = 1
 ConvSite(5)#105:     t_V_5  = 1
 ConvSite(6)#106:     t_V_6  = 1
 ConvSite(7)#107:     t_V_7  = 1
 ConvSite(8)#108:     t_V_8  = 1
 ConvSite(9)#109:     t_V_9  = 1
 ConvTime(0)#110:     t_W_0  = 1
 ConvTime(1)#111:     t_W_1  = 1
 ConvTime(2)#112:     t_W_2  = 1
 ConvTime(3)#113:     t_W_3  = 1
 ConvTime(4)#114:     t_W_4  = 1
 ConvTime(5)#115:     t_W_5  = 1
 ConvTime(6)#116:     t_W_6  = 1
 ConvTime(7)#117:     t_W_7  = 1
 ConvTime(8)#118:     t_W_8  = 1
 ConvTime(9)#119:     t_W_9  = 1
 PowerLimit(0,0)#120: - t_slack_power(0,0) - t_p(0,0) + 253 t_V_0  = 0
 PowerLimit(0,1)#121: - t_slack_power(0,1) - t_p(0,1) + 253 t_V_0  = 0
 PowerLimit(0,2)#122: - t_slack_power(0,2) - t_p(0,2) + 253 t_V_0  = 0
 PowerLimit(0,3)#123: - t_slack_power(0,3) - t_p(0,3) + 253 t_V_0  = 0
 PowerLimit(0,4)#124: - t_slack_power(0,4) - t_p(0,4) + 253 t_V_0  = 0
 PowerLimit(0,5)#125: - t_slack_power(0,5) - t_p(0,5) + 253 t_V_0  = 0
 PowerLimit(0,6)#126: - t_slack_power(0,6) - t_p(0,6) + 253 t_V_0  = 0
 PowerLimit(0,7)#127: - t_slack_power(0,7) - t_p(0,7) + 253 t_V_0  = 0
 PowerLimit(0,8)#128: - t_slack_power(0,8) - t_p(0,8) + 253 t_V_0  = 0
 PowerLimit(0,9)#129: - t_slack_power(0,9) - t_p(0,9) + 253 t_V_0  = 0
 PowerLimit(1,0)#130: - t_slack_power(1,0) - t_p(1,0) + 266 t_V_1  = 0
 PowerLimit(1,1)#131: - t_slack_power(1,1) - t_p(1,1) + 266 t_V_1  = 0
 PowerLimit(1,2)#132: - t_slack_power(1,2) - t_p(1,2) + 266 t_V_1  = 0
 PowerLimit(1,3)#133: - t_slack_power(1,3) - t_p(1,3) + 266 t_V_1  = 0
 PowerLimit(1,4)#134: - t_slack_power(1,4) - t_p(1,4) + 266 t_V_1  = 0
 PowerLimit(1,5)#135: - t_slack_power(1,5) - t_p(1,5) + 266 t_V_1  = 0
 PowerLimit(1,6)#136: - t_slack_power(1,6) - t_p(1,6) + 266 t_V_1  = 0
 PowerLimit(1,7)#137: - t_slack_power(1,7) - t_p(1,7) + 266 t_V_1  = 0
 PowerLimit(1,8)#138: - t_slack_power(1,8) - t_p(1,8) + 266 t_V_1  = 0
 PowerLimit(1,9)#139: - t_slack_power(1,9) - t_p(1,9) + 266 t_V_1  = 0
 PowerLimit(2,0)#140: - t_p(2,0) - t_slack_power(2,0) + 131 t_V_2  = 0
 PowerLimit(2,1)#141: - t_p(2,1) - t_slack_power(2,1) + 131 t_V_2  = 0
 PowerLimit(2,2)#142: - t_p(2,2) - t_slack_power(2,2) + 131 t_V_2  = 0
 PowerLimit(2,3)#143: - t_p(2,3) - t_slack_power(2,3) + 131 t_V_2  = 0
 PowerLimit(2,4)#144: - t_p(2,4) - t_slack_power(2,4) + 131 t_V_2  = 0
 PowerLimit(2,5)#145: - t_p(2,5) - t_slack_power(2,5) + 131 t_V_2  = 0
 PowerLimit(2,6)#146: - t_p(2,6) - t_slack_power(2,6) + 131 t_V_2  = 0
 PowerLimit(2,7)#147: - t_p(2,7) - t_slack_power(2,7) + 131 t_V_2  = 0
 PowerLimit(2,8)#148: - t_p(2,8) - t_slack_power(2,8) + 131 t_V_2  = 0
 PowerLimit(2,9)#149: - t_p(2,9) - t_slack_power(2,9) + 131 t_V_2  = 0
 PowerLimit(3,0)#150: - t_p(3,0) - t_slack_power(3,0) + 99 t_V_3  = 0
 PowerLimit(3,1)#151: - t_p(3,1) - t_slack_power(3,1) + 99 t_V_3  = 0
 PowerLimit(3,2)#152: - t_p(3,2) - t_slack_power(3,2) + 99 t_V_3  = 0
 PowerLimit(3,3)#153: - t_p(3,3) - t_slack_power(3,3) + 99 t_V_3  = 0
 PowerLimit(3,4)#154: - t_p(3,4) - t_slack_power(3,4) + 99 t_V_3  = 0
 PowerLimit(3,5)#155: - t_p(3,5) - t_slack_power(3,5) + 99 t_V_3  = 0
 PowerLimit(3,6)#156: - t_p(3,6) - t_slack_power(3,6) + 99 t_V_3  = 0
 PowerLimit(3,7)#157: - t_p(3,7) - t_slack_power(3,7) + 99 t_V_3  = 0
 PowerLimit(3,8)#158: - t_p(3,8) - t_slack_power(3,8) + 99 t_V_3  = 0
 PowerLimit(3,9)#159: - t_p(3,9) - t_slack_power(3,9) + 99 t_V_3  = 0
 PowerLimit(4,0)#160: - t_p(4,0) - t_slack_power(4,0) + 320 t_V_4  = 0
 PowerLimit(4,1)#161: - t_p(4,1) - t_slack_power(4,1) + 320 t_V_4  = 0
 PowerLimit(4,2)#162: - t_p(4,2) - t_slack_power(4,2) + 320 t_V_4  = 0
 PowerLimit(4,3)#163: - t_p(4,3) - t_slack_power(4,3) + 320 t_V_4  = 0
 PowerLimit(4,4)#164: - t_p(4,4) - t_slack_power(4,4) + 320 t_V_4  = 0
 PowerLimit(4,5)#165: - t_p(4,5) - t_slack_power(4,5) + 320 t_V_4  = 0
 PowerLimit(4,6)#166: - t_p(4,6) - t_slack_power(4,6) + 320 t_V_4  = 0
 PowerLimit(4,7)#167: - t_p(4,7) - t_slack_power(4,7) + 320 t_V_4  = 0
 PowerLimit(4,8)#168: - t_p(4,8) - t_slack_power(4,8) + 320 t_V_4  = 0
 PowerLimit(4,9)#169: - t_p(4,9) - t_slack_power(4,9) + 320 t_V_4  = 0
 PowerLimit(5,0)#170: - t_p(5,0) - t_slack_power(5,0) + 290 t_V_5  = 0
 PowerLimit(5,1)#171: - t_p(5,1) - t_slack_power(5,1) + 290 t_V_5  = 0
 PowerLimit(5,2)#172: - t_p(5,2) - t_slack_power(5,2) + 290 t_V_5  = 0
 PowerLimit(5,3)#173: - t_p(5,3) - t_slack_power(5,3) + 290 t_V_5  = 0
 PowerLimit(5,4)#174: - t_p(5,4) - t_slack_power(5,4) + 290 t_V_5  = 0
 PowerLimit(5,5)#175: - t_p(5,5) - t_slack_power(5,5) + 290 t_V_5  = 0
 PowerLimit(5,6)#176: - t_p(5,6) - t_slack_power(5,6) + 290 t_V_5  = 0
 PowerLimit(5,7)#177: - t_p(5,7) - t_slack_power(5,7) + 290 t_V_5  = 0
 PowerLimit(5,8)#178: - t_p(5,8) - t_slack_power(5,8) + 290 t_V_5  = 0
 PowerLimit(5,9)#179: - t_p(5,9) - t_slack_power(5,9) + 290 t_V_5  = 0
 PowerLimit(6,0)#180: - t_p(6,0) - t_slack_power(6,0) + 306 t_V_6  = 0
 PowerLimit(6,1)#181: - t_p(6,1) - t_slack_power(6,1) + 306 t_V_6  = 0
 PowerLimit(6,2)#182: - t_p(6,2) - t_slack_power(6,2) + 306 t_V_6  = 0
 PowerLimit(6,3)#183: - t_p(6,3) - t_slack_power(6,3) + 306 t_V_6  = 0
 PowerLimit(6,4)#184: - t_p(6,4) - t_slack_power(6,4) + 306 t_V_6  = 0
 PowerLimit(6,5)#185: - t_p(6,5) - t_slack_power(6,5) + 306 t_V_6  = 0
 PowerLimit(6,6)#186: - t_p(6,6) - t_slack_power(6,6) + 306 t_V_6  = 0
 PowerLimit(6,7)#187: - t_p(6,7) - t_slack_power(6,7) + 306 t_V_6  = 0
 PowerLimit(6,8)#188: - t_p(6,8) - t_slack_power(6,8) + 306 t_V_6  = 0
 PowerLimit(6,9)#189: - t_p(6,9) - t_slack_power(6,9) + 306 t_V_6  = 0
 PowerLimit(7,0)#190: - t_p(7,0) - t_slack_power(7,0) + 20 t_V_7  = 0
 PowerLimit(7,1)#191: - t_p(7,1) - t_slack_power(7,1) + 20 t_V_7  = 0
 PowerLimit(7,2)#192: - t_p(7,2) - t_slack_power(7,2) + 20 t_V_7  = 0
 PowerLimit(7,3)#193: - t_p(7,3) - t_slack_power(7,3) + 20 t_V_7  = 0
 PowerLimit(7,4)#194: - t_p(7,4) - t_slack_power(7,4) + 20 t_V_7  = 0
 PowerLimit(7,5)#195: - t_p(7,5) - t_slack_power(7,5) + 20 t_V_7  = 0
 PowerLimit(7,6)#196: - t_p(7,6) - t_slack_power(7,6) + 20 t_V_7  = 0
 PowerLimit(7,7)#197: - t_p(7,7) - t_slack_power(7,7) + 20 t_V_7  = 0
 PowerLimit(7,8)#198: - t_p(7,8) - t_slack_power(7,8) + 20 t_V_7  = 0
 PowerLimit(7,9)#199: - t_p(7,9) - t_slack_power(7,9) + 20 t_V_7  = 0
 PowerLimit(8,0)#200: - t_p(8,0) - t_slack_power(8,0) + 216 t_V_8  = 0
 PowerLimit(8,1)#201: - t_p(8,1) - t_slack_power(8,1) + 216 t_V_8  = 0
 PowerLimit(8,2)#202: - t_p(8,2) - t_slack_power(8,2) + 216 t_V_8  = 0
 PowerLimit(8,3)#203: - t_p(8,3) - t_slack_power(8,3) + 216 t_V_8  = 0
 PowerLimit(8,4)#204: - t_p(8,4) - t_slack_power(8,4) + 216 t_V_8  = 0
 PowerLimit(8,5)#205: - t_p(8,5) - t_slack_power(8,5) + 216 t_V_8  = 0
 PowerLimit(8,6)#206: - t_p(8,6) - t_slack_power(8,6) + 216 t_V_8  = 0
 PowerLimit(8,7)#207: - t_p(8,7) - t_slack_power(8,7) + 216 t_V_8  = 0
 PowerLimit(8,8)#208: - t_p(8,8) - t_slack_power(8,8) + 216 t_V_8  = 0
 PowerLimit(8,9)#209: - t_p(8,9) - t_slack_power(8,9) + 216 t_V_8  = 0
 PowerLimit(9,0)#210: - t_p(9,0) - t_slack_power(9,0) + 265 t_V_9  = 0
 PowerLimit(9,1)#211: - t_p(9,1) - t_slack_power(9,1) + 265 t_V_9  = 0
 PowerLimit(9,2)#212: - t_p(9,2) - t_slack_power(9,2) + 265 t_V_9  = 0
 PowerLimit(9,3)#213: - t_p(9,3) - t_slack_power(9,3) + 265 t_V_9  = 0
 PowerLimit(9,4)#214: - t_p(9,4) - t_slack_power(9,4) + 265 t_V_9  = 0
 PowerLimit(9,5)#215: - t_p(9,5) - t_slack_power(9,5) + 265 t_V_9  = 0
 PowerLimit(9,6)#216: - t_p(9,6) - t_slack_power(9,6) + 265 t_V_9  = 0
 PowerLimit(9,7)#217: - t_p(9,7) - t_slack_power(9,7) + 265 t_V_9  = 0
 PowerLimit(9,8)#218: - t_p(9,8) - t_slack_power(9,8) + 265 t_V_9  = 0
 PowerLimit(9,9)#219: - t_p(9,9) - t_slack_power(9,9) + 265 t_V_9  = 0
 Demand(0)#220:       t_p(2,0) + t_p(3,0) + t_p(4,0) + t_p(5,0) + t_p(6,0)
                      + t_p(7,0) + t_p(8,0) + t_p(9,0) - t_slack_demand(0)
                      + t_p(0,0) + t_p(1,0) + 100 t_V_4 + 85 t_V_1 + 100 t_V_6
                      + 97 t_V_5 + 86 t_V_9 + 83 t_V_0 + 73 t_V_8 + 52 t_V_2
                      + 35 t_V_3 + 13 t_V_7  = 613
 Demand(1)#221:       t_p(2,1) + t_p(3,1) + t_p(4,1) + t_p(5,1) + t_p(6,1)
                      + t_p(7,1) + t_p(8,1) + t_p(9,1) - t_slack_demand(1)
                      + t_p(0,1) + t_p(1,1) + 100 t_V_4 + 85 t_V_1 + 100 t_V_6
                      + 97 t_V_5 + 86 t_V_9 + 83 t_V_0 + 73 t_V_8 + 52 t_V_2
                      + 35 t_V_3 + 13 t_V_7  = 799
 Demand(2)#222:       t_p(2,2) + t_p(3,2) + t_p(4,2) + t_p(5,2) + t_p(6,2)
                      + t_p(7,2) + t_p(8,2) + t_p(9,2) - t_slack_demand(2)
                      + t_p(0,2) + t_p(1,2) + 100 t_V_4 + 85 t_V_1 + 100 t_V_6
                      + 97 t_V_5 + 86 t_V_9 + 83 t_V_0 + 73 t_V_8 + 52 t_V_2
                      + 35 t_V_3 + 13 t_V_7  = 873
 Demand(3)#223:       t_p(2,3) + t_p(3,3) + t_p(4,3) + t_p(5,3) + t_p(6,3)
                      + t_p(7,3) + t_p(8,3) + t_p(9,3) - t_slack_demand(3)
                      + t_p(0,3) + t_p(1,3) + 100 t_V_4 + 85 t_V_1 + 100 t_V_6
                      + 97 t_V_5 + 86 t_V_9 + 83 t_V_0 + 73 t_V_8 + 52 t_V_2
                      + 35 t_V_3 + 13 t_V_7  = 1012
 Demand(4)#224:       t_p(2,4) + t_p(3,4) + t_p(4,4) + t_p(5,4) + t_p(6,4)
                      + t_p(7,4) + t_p(8,4) + t_p(9,4) - t_slack_demand(4)
                      + t_p(0,4) + t_p(1,4) + 100 t_V_4 + 85 t_V_1 + 100 t_V_6
                      + 97 t_V_5 + 86 t_V_9 + 83 t_V_0 + 73 t_V_8 + 52 t_V_2
                      + 35 t_V_3 + 13 t_V_7  = 1243
 Demand(5)#225:       t_p(2,5) + t_p(3,5) + t_p(4,5) + t_p(5,5) + t_p(6,5)
                      + t_p(7,5) + t_p(8,5) + t_p(9,5) - t_slack_demand(5)
                      + t_p(0,5) + t_p(1,5) + 100 t_V_4 + 85 t_V_1 + 100 t_V_6
                      + 97 t_V_5 + 86 t_V_9 + 83 t_V_0 + 73 t_V_8 + 52 t_V_2
                      + 35 t_V_3 + 13 t_V_7  = 1349
 Demand(6)#226:       t_p(2,6) + t_p(3,6) + t_p(4,6) + t_p(5,6) + t_p(6,6)
                      + t_p(7,6) + t_p(8,6) + t_p(9,6) - t_slack_demand(6)
                      + t_p(0,6) + t_p(1,6) + 100 t_V_4 + 85 t_V_1 + 100 t_V_6
                      + 97 t_V_5 + 86 t_V_9 + 83 t_V_0 + 73 t_V_8 + 52 t_V_2
                      + 35 t_V_3 + 13 t_V_7  = 1518
 Demand(7)#227:       t_p(2,7) + t_p(3,7) + t_p(4,7) + t_p(5,7) + t_p(6,7)
                      + t_p(7,7) + t_p(8,7) + t_p(9,7) - t_slack_demand(7)
                      + t_p(0,7) + t_p(1,7) + 100 t_V_4 + 85 t_V_1 + 100 t_V_6
                      + 97 t_V_5 + 86 t_V_9 + 83 t_V_0 + 73 t_V_8 + 52 t_V_2
                      + 35 t_V_3 + 13 t_V_7  = 1622
 Demand(8)#228:       t_p(2,8) + t_p(3,8) + t_p(4,8) + t_p(5,8) + t_p(6,8)
                      + t_p(7,8) + t_p(8,8) + t_p(9,8) - t_slack_demand(8)
                      + t_p(0,8) + t_p(1,8) + 100 t_V_4 + 85 t_V_1 + 100 t_V_6
                      + 97 t_V_5 + 86 t_V_9 + 83 t_V_0 + 73 t_V_8 + 52 t_V_2
                      + 35 t_V_3 + 13 t_V_7  = 1779
 Demand(9)#229:       t_p(2,9) + t_p(3,9) + t_p(4,9) + t_p(5,9) + t_p(6,9)
                      + t_p(7,9) + t_p(8,9) + t_p(9,9) - t_slack_demand(9)
                      + t_p(0,9) + t_p(1,9) + 100 t_V_4 + 85 t_V_1 + 100 t_V_6
                      + 97 t_V_5 + 86 t_V_9 + 83 t_V_0 + 73 t_V_8 + 52 t_V_2
                      + 35 t_V_3 + 13 t_V_7  = 1956
Bounds
 0 <= t_p(2,0) <= 131
 0 <= t_p(2,1) <= 131
 0 <= t_p(2,2) <= 131
 0 <= t_p(2,3) <= 131
 0 <= t_p(2,4) <= 131
 0 <= t_p(2,5) <= 131
 0 <= t_p(2,6) <= 131
 0 <= t_p(2,7) <= 131
 0 <= t_p(2,8) <= 131
 0 <= t_p(2,9) <= 131
 0 <= t_p(3,0) <= 99
 0 <= t_p(3,1) <= 99
 0 <= t_p(3,2) <= 99
 0 <= t_p(3,3) <= 99
 0 <= t_p(3,4) <= 99
 0 <= t_p(3,5) <= 99
 0 <= t_p(3,6) <= 99
 0 <= t_p(3,7) <= 99
 0 <= t_p(3,8) <= 99
 0 <= t_p(3,9) <= 99
 0 <= t_p(4,0) <= 320
 0 <= t_p(4,1) <= 320
 0 <= t_p(4,2) <= 320
 0 <= t_p(4,3) <= 320
 0 <= t_p(4,4) <= 320
 0 <= t_p(4,5) <= 320
 0 <= t_p(4,6) <= 320
 0 <= t_p(4,7) <= 320
 0 <= t_p(4,8) <= 320
 0 <= t_p(4,9) <= 320
 0 <= t_p(5,0) <= 290
 0 <= t_p(5,1) <= 290
 0 <= t_p(5,2) <= 290
 0 <= t_p(5,3) <= 290
 0 <= t_p(5,4) <= 290
 0 <= t_p(5,5) <= 290
 0 <= t_p(5,6) <= 290
 0 <= t_p(5,7) <= 290
 0 <= t_p(5,8) <= 290
 0 <= t_p(5,9) <= 290
 0 <= t_p(6,0) <= 306
 0 <= t_p(6,1) <= 306
 0 <= t_p(6,2) <= 306
 0 <= t_p(6,3) <= 306
 0 <= t_p(6,4) <= 306
 0 <= t_p(6,5) <= 306
 0 <= t_p(6,6) <= 306
 0 <= t_p(6,7) <= 306
 0 <= t_p(6,8) <= 306
 0 <= t_p(6,9) <= 306
 0 <= t_p(7,0) <= 20
 0 <= t_p(7,1) <= 20
 0 <= t_p(7,2) <= 20
 0 <= t_p(7,3) <= 20
 0 <= t_p(7,4) <= 20
 0 <= t_p(7,5) <= 20
 0 <= t_p(7,6) <= 20
 0 <= t_p(7,7) <= 20
 0 <= t_p(7,8) <= 20
 0 <= t_p(7,9) <= 20
 0 <= t_p(8,0) <= 216
 0 <= t_p(8,1) <= 216
 0 <= t_p(8,2) <= 216
 0 <= t_p(8,3) <= 216
 0 <= t_p(8,4) <= 216
 0 <= t_p(8,5) <= 216
 0 <= t_p(8,6) <= 216
 0 <= t_p(8,7) <= 216
 0 <= t_p(8,8) <= 216
 0 <= t_p(8,9) <= 216
 0 <= t_p(9,0) <= 265
 0 <= t_p(9,1) <= 265
 0 <= t_p(9,2) <= 265
 0 <= t_p(9,3) <= 265
 0 <= t_p(9,4) <= 265
 0 <= t_p(9,5) <= 265
 0 <= t_p(9,6) <= 265
 0 <= t_p(9,7) <= 265
 0 <= t_p(9,8) <= 265
 0 <= t_p(9,9) <= 265
 0 <= t_slack_power(0,0) <= 253
 0 <= t_slack_power(0,1) <= 253
 0 <= t_slack_power(0,2) <= 253
 0 <= t_slack_power(0,3) <= 253
 0 <= t_slack_power(0,4) <= 253
 0 <= t_slack_power(0,5) <= 253
 0 <= t_slack_power(0,6) <= 253
 0 <= t_slack_power(0,7) <= 253
 0 <= t_slack_power(0,8) <= 253
 0 <= t_slack_power(0,9) <= 253
 0 <= t_slack_power(1,0) <= 266
 0 <= t_slack_power(1,1) <= 266
 0 <= t_slack_power(1,2) <= 266
 0 <= t_slack_power(1,3) <= 266
 0 <= t_slack_power(1,4) <= 266
 0 <= t_slack_power(1,5) <= 266
 0 <= t_slack_power(1,6) <= 266
 0 <= t_slack_power(1,7) <= 266
 0 <= t_slack_power(1,8) <= 266
 0 <= t_slack_power(1,9) <= 266
 0 <= t_slack_power(2,0) <= 131
 0 <= t_slack_power(2,1) <= 131
 0 <= t_slack_power(2,2) <= 131
 0 <= t_slack_power(2,3) <= 131
 0 <= t_slack_power(2,4) <= 131
 0 <= t_slack_power(2,5) <= 131
 0 <= t_slack_power(2,6) <= 131
 0 <= t_slack_power(2,7) <= 131
 0 <= t_slack_power(2,8) <= 131
 0 <= t_slack_power(2,9) <= 131
 0 <= t_slack_power(3,0) <= 99
 0 <= t_slack_power(3,1) <= 99
 0 <= t_slack_power(3,2) <= 99
 0 <= t_slack_power(3,3) <= 99
 0 <= t_slack_power(3,4) <= 99
 0 <= t_slack_power(3,5) <= 99
 0 <= t_slack_power(3,6) <= 99
 0 <= t_slack_power(3,7) <= 99
 0 <= t_slack_power(3,8) <= 99
 0 <= t_slack_power(3,9) <= 99
 0 <= t_slack_power(4,0) <= 320
 0 <= t_slack_power(4,1) <= 320
 0 <= t_slack_power(4,2) <= 320
 0 <= t_slack_power(4,3) <= 320
 0 <= t_slack_power(4,4) <= 320
 0 <= t_slack_power(4,5) <= 320
 0 <= t_slack_power(4,6) <= 320
 0 <= t_slack_power(4,7) <= 320
 0 <= t_slack_power(4,8) <= 320
 0 <= t_slack_power(4,9) <= 320
 0 <= t_slack_power(5,0) <= 290
 0 <= t_slack_power(5,1) <= 290
 0 <= t_slack_power(5,2) <= 290
 0 <= t_slack_power(5,3) <= 290
 0 <= t_slack_power(5,4) <= 290
 0 <= t_slack_power(5,5) <= 290
 0 <= t_slack_power(5,6) <= 290
 0 <= t_slack_power(5,7) <= 290
 0 <= t_slack_power(5,8) <= 290
 0 <= t_slack_power(5,9) <= 290
 0 <= t_slack_power(6,0) <= 306
 0 <= t_slack_power(6,1) <= 306
 0 <= t_slack_power(6,2) <= 306
 0 <= t_slack_power(6,3) <= 306
 0 <= t_slack_power(6,4) <= 306
 0 <= t_slack_power(6,5) <= 306
 0 <= t_slack_power(6,6) <= 306
 0 <= t_slack_power(6,7) <= 306
 0 <= t_slack_power(6,8) <= 306
 0 <= t_slack_power(6,9) <= 306
 0 <= t_slack_power(7,0) <= 20
 0 <= t_slack_power(7,1) <= 20
 0 <= t_slack_power(7,2) <= 20
 0 <= t_slack_power(7,3) <= 20
 0 <= t_slack_power(7,4) <= 20
 0 <= t_slack_power(7,5) <= 20
 0 <= t_slack_power(7,6) <= 20
 0 <= t_slack_power(7,7) <= 20
 0 <= t_slack_power(7,8) <= 20
 0 <= t_slack_power(7,9) <= 20
 0 <= t_slack_power(8,0) <= 216
 0 <= t_slack_power(8,1) <= 216
 0 <= t_slack_power(8,2) <= 216
 0 <= t_slack_power(8,3) <= 216
 0 <= t_slack_power(8,4) <= 216
 0 <= t_slack_power(8,5) <= 216
 0 <= t_slack_power(8,6) <= 216
 0 <= t_slack_power(8,7) <= 216
 0 <= t_slack_power(8,8) <= 216
 0 <= t_slack_power(8,9) <= 216
 0 <= t_slack_power(9,0) <= 265
 0 <= t_slack_power(9,1) <= 265
 0 <= t_slack_power(9,2) <= 265
 0 <= t_slack_power(9,3) <= 265
 0 <= t_slack_power(9,4) <= 265
 0 <= t_slack_power(9,5) <= 265
 0 <= t_slack_power(9,6) <= 265
 0 <= t_slack_power(9,7) <= 265
 0 <= t_slack_power(9,8) <= 265
 0 <= t_slack_power(9,9) <= 265
 0 <= t_slack_demand(0) <= 10000
 0 <= t_slack_demand(1) <= 10000
 0 <= t_slack_demand(2) <= 10000
 0 <= t_slack_demand(3) <= 10000
 0 <= t_slack_demand(4) <= 10000
 0 <= t_slack_demand(5) <= 10000
 0 <= t_slack_demand(6) <= 10000
 0 <= t_slack_demand(7) <= 10000
 0 <= t_slack_demand(8) <= 10000
 0 <= t_slack_demand(9) <= 10000
 0 <= t_p(0,0) <= 253
 0 <= t_p(0,1) <= 253
 0 <= t_p(0,2) <= 253
 0 <= t_p(0,3) <= 253
 0 <= t_p(0,4) <= 253
 0 <= t_p(0,5) <= 253
 0 <= t_p(0,6) <= 253
 0 <= t_p(0,7) <= 253
 0 <= t_p(0,8) <= 253
 0 <= t_p(0,9) <= 253
 0 <= t_p(1,0) <= 266
 0 <= t_p(1,1) <= 266
 0 <= t_p(1,2) <= 266
 0 <= t_p(1,3) <= 266
 0 <= t_p(1,4) <= 266
 0 <= t_p(1,5) <= 266
 0 <= t_p(1,6) <= 266
 0 <= t_p(1,7) <= 266
 0 <= t_p(1,8) <= 266
 0 <= t_p(1,9) <= 266
End
